n = 50;
C = 6416;
w = [26,219,349,404,13,468,279,311,238,365,482,435,95,355,187,69,10,455,323,388,156,463,409,373,408,404,409,296,72,172,160,142,72,186,139,310,189,119,104,128,484,479,218,455,64,301,264,178,85,123];
p = [140,1105,1755,2030,75,2350,1405,1565,1200,1835,2420,2185,485,1785,945,355,60,2285,1625,1950,790,2325,2055,1875,2050,2030,2055,1490,370,870,810,720,370,940,705,1560,955,605,530,650,2430,2405,1100,2285,330,1515,1330,900,435,625];
